
Gurobi 8.1.1 (mac64, Python) logging started Thu Apr 18 04:30:09 2019

Academic license - for non-commercial use only
Changed value of parameter LazyConstraints to 1
   Prev: 0  Min: 0  Max: 1  Default: 0
Optimize a model with 50 rows, 1275 columns and 2500 nonzeros
Variable types: 0 continuous, 1275 integer (1275 binary)
Coefficient statistics:
  Matrix range     [1e+00, 1e+00]
  Objective range  [1e+00, 1e+02]
  Bounds range     [1e+00, 1e+00]
  RHS range        [2e+00, 2e+00]
Found heuristic solution: objective 2775.3416544
Presolve removed 0 rows and 50 columns
Presolve time: 0.01s
Presolved: 50 rows, 1225 columns, 2450 nonzeros
Variable types: 0 continuous, 1225 integer (1225 binary)

Root relaxation: objective 5.981996e+02, 71 iterations, 0.01 seconds

    Nodes    |    Current Node    |     Objective Bounds      |     Work
 Expl Unexpl |  Obj  Depth IntInf | Incumbent    BestBd   Gap | It/Node Time

     0     0  598.19961    0    6 2775.34165  598.19961  78.4%     -    0s
H    0     0                     784.5828097  598.19961  23.8%     -    0s
     0     0  626.69891    0    6  784.58281  626.69891  20.1%     -    0s
     0     0  628.53542    0    6  784.58281  628.53542  19.9%     -    0s
H    0     0                     695.4655062  628.53542  9.62%     -    0s
     0     0  628.66176    0   15  695.46551  628.66176  9.61%     -    0s
     0     0  628.66176    0   15  695.46551  628.66176  9.61%     -    0s
H    0     0                     646.9825240  628.66176  2.83%     -    0s
     0     0  628.66176    0    6  646.98252  628.66176  2.83%     -    0s
     0     0  629.05123    0   12  646.98252  629.05123  2.77%     -    0s
H    0     0                     645.3316324  629.05123  2.52%     -    0s
     0     0  629.12429    0   16  645.33163  629.12429  2.51%     -    0s
     0     0  631.93825    0   20  645.33163  631.93825  2.08%     -    0s
     0     0  632.49836    0   20  645.33163  632.49836  1.99%     -    0s
     0     0  632.95960    0   10  645.33163  632.95960  1.92%     -    0s
     0     0  633.14903    0   20  645.33163  633.14903  1.89%     -    0s
     0     0  633.49373    0   57  645.33163  633.49373  1.83%     -    0s
     0     0  633.53931    0   19  645.33163  633.53931  1.83%     -    0s
     0     0  633.56960    0   20  645.33163  633.56960  1.82%     -    0s
     0     0  633.72183    0   23  645.33163  633.72183  1.80%     -    0s
     0     0  634.19251    0   44  645.33163  634.19251  1.73%     -    0s
     0     0  634.40272    0   50  645.33163  634.40272  1.69%     -    0s
     0     0  634.42914    0   54  645.33163  634.42914  1.69%     -    0s
     0     0  634.53137    0   66  645.33163  634.53137  1.67%     -    0s
     0     0  634.53137    0    6  645.33163  634.53137  1.67%     -    0s
     0     0  634.53137    0   53  645.33163  634.53137  1.67%     -    0s
     0     0  634.53137    0   36  645.33163  634.53137  1.67%     -    0s
     0     0  634.53884    0   45  645.33163  634.53884  1.67%     -    0s
     0     0  634.61028    0   62  645.33163  634.61028  1.66%     -    0s
     0     0  634.69213    0   66  645.33163  634.69213  1.65%     -    0s
     0     0  634.69867    0   68  645.33163  634.69867  1.65%     -    0s
     0     0  634.77203    0   67  645.33163  634.77203  1.64%     -    0s
     0     0  634.85441    0   67  645.33163  634.85441  1.62%     -    0s
     0     0  634.85441    0   67  645.33163  634.85441  1.62%     -    0s
H    0     0                     637.1109636  634.85441  0.35%     -    0s
H    0     0                     635.5025788  634.85441  0.10%     -    0s
     0     0     cutoff    0       635.50258  635.50258  0.00%     -    0s

Explored 1 nodes (443 simplex iterations) in 0.50 seconds
Thread count was 8 (of 8 available processors)

Solution count 7: 635.503 637.111 645.332 ... 2775.34

Optimal solution found (tolerance 1.00e-04)
Best objective 6.355025787588e+02, best bound 6.355025787588e+02, gap 0.0000%
Changed value of parameter LazyConstraints to 1
   Prev: 0  Min: 0  Max: 1  Default: 0
Optimize a model with 50 rows, 1275 columns and 2500 nonzeros
Variable types: 0 continuous, 1275 integer (1275 binary)
Coefficient statistics:
  Matrix range     [1e+00, 1e+00]
  Objective range  [1e+00, 1e+02]
  Bounds range     [1e+00, 1e+00]
  RHS range        [2e+00, 2e+00]
Found heuristic solution: objective 2775.3416544
Presolve removed 0 rows and 50 columns
Presolve time: 0.00s
Presolved: 50 rows, 1225 columns, 2450 nonzeros
Variable types: 0 continuous, 1225 integer (1225 binary)

Root relaxation: objective 5.981996e+02, 71 iterations, 0.00 seconds

    Nodes    |    Current Node    |     Objective Bounds      |     Work
 Expl Unexpl |  Obj  Depth IntInf | Incumbent    BestBd   Gap | It/Node Time

     0     0  598.19961    0    6 2775.34165  598.19961  78.4%     -    0s
H    0     0                     784.5828097  598.19961  23.8%     -    0s
     0     0  626.69891    0    6  784.58281  626.69891  20.1%     -    0s
     0     0  628.53542    0    6  784.58281  628.53542  19.9%     -    0s
H    0     0                     695.4655062  628.53542  9.62%     -    0s
     0     0  628.66176    0   15  695.46551  628.66176  9.61%     -    0s
     0     0  628.66176    0   15  695.46551  628.66176  9.61%     -    0s
H    0     0                     646.9825240  628.66176  2.83%     -    0s
     0     0  628.66176    0    6  646.98252  628.66176  2.83%     -    0s
     0     0  629.05123    0   12  646.98252  629.05123  2.77%     -    0s
H    0     0                     645.3316324  629.05123  2.52%     -    0s
     0     0  629.12429    0   16  645.33163  629.12429  2.51%     -    0s
     0     0  631.93825    0   20  645.33163  631.93825  2.08%     -    0s
     0     0  632.49836    0   20  645.33163  632.49836  1.99%     -    0s
     0     0  632.95960    0   10  645.33163  632.95960  1.92%     -    0s
     0     0  633.14903    0   20  645.33163  633.14903  1.89%     -    0s
     0     0  633.49373    0   57  645.33163  633.49373  1.83%     -    0s
     0     0  633.53931    0   19  645.33163  633.53931  1.83%     -    0s
     0     0  633.56960    0   20  645.33163  633.56960  1.82%     -    0s
     0     0  633.72183    0   23  645.33163  633.72183  1.80%     -    0s
     0     0  634.19251    0   44  645.33163  634.19251  1.73%     -    0s
     0     0  634.40272    0   50  645.33163  634.40272  1.69%     -    0s
     0     0  634.42914    0   54  645.33163  634.42914  1.69%     -    0s
     0     0  634.53137    0   66  645.33163  634.53137  1.67%     -    0s
     0     0  634.53137    0    6  645.33163  634.53137  1.67%     -    0s
     0     0  634.53137    0   53  645.33163  634.53137  1.67%     -    0s
     0     0  634.53137    0   36  645.33163  634.53137  1.67%     -    0s
     0     0  634.53884    0   45  645.33163  634.53884  1.67%     -    0s
     0     0  634.61028    0   62  645.33163  634.61028  1.66%     -    0s
     0     0  634.69213    0   66  645.33163  634.69213  1.65%     -    0s
     0     0  634.69867    0   68  645.33163  634.69867  1.65%     -    0s
     0     0  634.77203    0   67  645.33163  634.77203  1.64%     -    0s
     0     0  634.85441    0   67  645.33163  634.85441  1.62%     -    0s
     0     0  634.85441    0   67  645.33163  634.85441  1.62%     -    0s
H    0     0                     637.1109636  634.85441  0.35%     -    0s
H    0     0                     635.5025788  634.85441  0.10%     -    0s
     0     0     cutoff    0       635.50258  635.50258  0.00%     -    0s

Explored 1 nodes (443 simplex iterations) in 0.44 seconds
Thread count was 8 (of 8 available processors)

Solution count 7: 635.503 637.111 645.332 ... 2775.34

Optimal solution found (tolerance 1.00e-04)
Best objective 6.355025787588e+02, best bound 6.355025787588e+02, gap 0.0000%
Changed value of parameter LazyConstraints to 1
   Prev: 0  Min: 0  Max: 1  Default: 0
Optimize a model with 25 rows, 325 columns and 625 nonzeros
Variable types: 0 continuous, 325 integer (325 binary)
Coefficient statistics:
  Matrix range     [1e+00, 1e+00]
  Objective range  [2e+00, 1e+02]
  Bounds range     [1e+00, 1e+00]
  RHS range        [2e+00, 2e+00]
Found heuristic solution: objective 1306.5030272
Presolve removed 0 rows and 25 columns
Presolve time: 0.00s
Presolved: 25 rows, 300 columns, 600 nonzeros
Variable types: 0 continuous, 300 integer (300 binary)

Root relaxation: objective 4.738647e+02, 38 iterations, 0.00 seconds

    Nodes    |    Current Node    |     Objective Bounds      |     Work
 Expl Unexpl |  Obj  Depth IntInf | Incumbent    BestBd   Gap | It/Node Time

     0     0  473.86465    0    6 1306.50303  473.86465  63.7%     -    0s
     0     0  493.69072    0    6 1306.50303  493.69072  62.2%     -    0s
H    0     0                     805.9587072  493.69072  38.7%     -    0s
     0     0  496.13926    0   12  805.95871  496.13926  38.4%     -    0s
H    0     0                     591.4506459  496.13926  16.1%     -    0s
H    0     0                     584.7698205  496.13926  15.2%     -    0s
     0     0  498.62179    0    6  584.76982  498.62179  14.7%     -    0s
     0     0  498.62179    0    6  584.76982  498.62179  14.7%     -    0s
H    0     0                     516.7933266  498.62179  3.52%     -    0s
     0     0  498.62179    0   10  516.79333  498.62179  3.52%     -    0s
*    0     0               0     505.5359338  505.53593  0.00%     -    0s

Cutting planes:
  Gomory: 1
  Zero half: 3

Explored 1 nodes (103 simplex iterations) in 0.07 seconds
Thread count was 8 (of 8 available processors)

Solution count 6: 505.536 516.793 584.77 ... 1306.5

Optimal solution found (tolerance 1.00e-04)
Best objective 5.055359337746e+02, best bound 5.055359337746e+02, gap 0.0000%
Changed value of parameter LazyConstraints to 1
   Prev: 0  Min: 0  Max: 1  Default: 0
Optimize a model with 25 rows, 325 columns and 625 nonzeros
Variable types: 0 continuous, 325 integer (325 binary)
Coefficient statistics:
  Matrix range     [1e+00, 1e+00]
  Objective range  [2e+00, 1e+02]
  Bounds range     [1e+00, 1e+00]
  RHS range        [2e+00, 2e+00]
Found heuristic solution: objective 1306.5030272
Presolve removed 0 rows and 25 columns
Presolve time: 0.00s
Presolved: 25 rows, 300 columns, 600 nonzeros
Variable types: 0 continuous, 300 integer (300 binary)

Root relaxation: objective 4.738647e+02, 38 iterations, 0.00 seconds

    Nodes    |    Current Node    |     Objective Bounds      |     Work
 Expl Unexpl |  Obj  Depth IntInf | Incumbent    BestBd   Gap | It/Node Time

     0     0  473.86465    0    6 1306.50303  473.86465  63.7%     -    0s
     0     0  493.69072    0    6 1306.50303  493.69072  62.2%     -    0s
H    0     0                     805.9587072  493.69072  38.7%     -    0s
     0     0  496.13926    0   12  805.95871  496.13926  38.4%     -    0s
H    0     0                     591.4506459  496.13926  16.1%     -    0s
H    0     0                     584.7698205  496.13926  15.2%     -    0s
     0     0  498.62179    0    6  584.76982  498.62179  14.7%     -    0s
     0     0  498.62179    0    6  584.76982  498.62179  14.7%     -    0s
H    0     0                     516.7933266  498.62179  3.52%     -    0s
     0     0  498.62179    0   10  516.79333  498.62179  3.52%     -    0s
*    0     0               0     505.5359338  505.53593  0.00%     -    0s

Cutting planes:
  Gomory: 1
  Zero half: 3

Explored 1 nodes (103 simplex iterations) in 0.09 seconds
Thread count was 8 (of 8 available processors)

Solution count 6: 505.536 516.793 584.77 ... 1306.5

Optimal solution found (tolerance 1.00e-04)
Best objective 5.055359337746e+02, best bound 5.055359337746e+02, gap 0.0000%
Changed value of parameter LazyConstraints to 1
   Prev: 0  Min: 0  Max: 1  Default: 0
Optimize a model with 5 rows, 15 columns and 25 nonzeros
Variable types: 0 continuous, 15 integer (15 binary)
Coefficient statistics:
  Matrix range     [1e+00, 1e+00]
  Objective range  [4e+01, 1e+02]
  Bounds range     [1e+00, 1e+00]
  RHS range        [2e+00, 2e+00]
Presolve removed 0 rows and 5 columns
Presolve time: 0.00s
Presolved: 5 rows, 10 columns, 20 nonzeros
Variable types: 0 continuous, 10 integer (10 binary)
Found heuristic solution: objective 279.7592526

Root relaxation: cutoff, 7 iterations, 0.00 seconds

    Nodes    |    Current Node    |     Objective Bounds      |     Work
 Expl Unexpl |  Obj  Depth IntInf | Incumbent    BestBd   Gap | It/Node Time

     0     0     cutoff    0       279.75925  279.75925  0.00%     -    0s

Explored 0 nodes (7 simplex iterations) in 0.02 seconds
Thread count was 8 (of 8 available processors)

Solution count 1: 279.759 

Optimal solution found (tolerance 1.00e-04)
Best objective 2.797592525741e+02, best bound 2.797592525741e+02, gap 0.0000%
Changed value of parameter LazyConstraints to 1
   Prev: 0  Min: 0  Max: 1  Default: 0
Optimize a model with 15 rows, 120 columns and 225 nonzeros
Variable types: 0 continuous, 120 integer (120 binary)
Coefficient statistics:
  Matrix range     [1e+00, 1e+00]
  Objective range  [9e+00, 1e+02]
  Bounds range     [1e+00, 1e+00]
  RHS range        [2e+00, 2e+00]
Presolve removed 0 rows and 15 columns
Presolve time: 0.00s
Presolved: 15 rows, 105 columns, 210 nonzeros
Variable types: 0 continuous, 105 integer (105 binary)

Root relaxation: objective 3.865656e+02, 22 iterations, 0.00 seconds

    Nodes    |    Current Node    |     Objective Bounds      |     Work
 Expl Unexpl |  Obj  Depth IntInf | Incumbent    BestBd   Gap | It/Node Time

*    0     0               0     409.8806349  409.88063  0.00%     -    0s

Cutting planes:
  Lazy constraints: 3

Explored 0 nodes (30 simplex iterations) in 0.02 seconds
Thread count was 8 (of 8 available processors)

Solution count 1: 409.881 

Optimal solution found (tolerance 1.00e-04)
Best objective 4.098806349201e+02, best bound 4.098806349201e+02, gap 0.0000%
Changed value of parameter LazyConstraints to 1
   Prev: 0  Min: 0  Max: 1  Default: 0
Optimize a model with 15 rows, 120 columns and 225 nonzeros
Variable types: 0 continuous, 120 integer (120 binary)
Coefficient statistics:
  Matrix range     [1e+00, 1e+00]
  Objective range  [0e+00, 0e+00]
  Bounds range     [1e+00, 1e+00]
  RHS range        [2e+00, 2e+00]
Presolve removed 0 rows and 15 columns
Presolve time: 0.00s
Presolved: 15 rows, 105 columns, 210 nonzeros
Variable types: 0 continuous, 105 integer (105 binary)

Root relaxation: objective 0.000000e+00, 17 iterations, 0.00 seconds

    Nodes    |    Current Node    |     Objective Bounds      |     Work
 Expl Unexpl |  Obj  Depth IntInf | Incumbent    BestBd   Gap | It/Node Time

*    0     0               0       0.0000000    0.00000  0.00%     -    0s

Cutting planes:
  Lazy constraints: 1

Explored 0 nodes (17 simplex iterations) in 0.02 seconds
Thread count was 8 (of 8 available processors)

Solution count 1: 0 

Optimal solution found (tolerance 1.00e-04)
Best objective 0.000000000000e+00, best bound 0.000000000000e+00, gap 0.0000%
Changed value of parameter LazyConstraints to 1
   Prev: 0  Min: 0  Max: 1  Default: 0
Optimize a model with 15 rows, 120 columns and 225 nonzeros
Variable types: 0 continuous, 120 integer (120 binary)
Coefficient statistics:
  Matrix range     [1e+00, 1e+00]
  Objective range  [0e+00, 0e+00]
  Bounds range     [1e+00, 1e+00]
  RHS range        [2e+00, 2e+00]
Presolve removed 0 rows and 15 columns
Presolve time: 0.00s
Presolved: 15 rows, 105 columns, 210 nonzeros
Variable types: 0 continuous, 105 integer (105 binary)

Root relaxation: objective 0.000000e+00, 17 iterations, 0.00 seconds

    Nodes    |    Current Node    |     Objective Bounds      |     Work
 Expl Unexpl |  Obj  Depth IntInf | Incumbent    BestBd   Gap | It/Node Time

*    0     0               0       0.0000000    0.00000  0.00%     -    0s

Cutting planes:
  Lazy constraints: 1

Explored 0 nodes (17 simplex iterations) in 0.02 seconds
Thread count was 8 (of 8 available processors)

Solution count 1: 0 

Optimal solution found (tolerance 1.00e-04)
Best objective 0.000000000000e+00, best bound 0.000000000000e+00, gap 0.0000%
Changed value of parameter LazyConstraints to 1
   Prev: 0  Min: 0  Max: 1  Default: 0
Optimize a model with 15 rows, 120 columns and 225 nonzeros
Variable types: 0 continuous, 120 integer (120 binary)
Coefficient statistics:
  Matrix range     [1e+00, 1e+00]
  Objective range  [4e-03, 7e-02]
  Bounds range     [1e+00, 1e+00]
  RHS range        [2e+00, 2e+00]
Presolve removed 0 rows and 15 columns
Presolve time: 0.00s
Presolved: 15 rows, 105 columns, 210 nonzeros
Variable types: 0 continuous, 105 integer (105 binary)

Root relaxation: objective 1.777687e-01, 15 iterations, 0.00 seconds

    Nodes    |    Current Node    |     Objective Bounds      |     Work
 Expl Unexpl |  Obj  Depth IntInf | Incumbent    BestBd   Gap | It/Node Time

*    0     0               0       0.1956165    0.19562  0.00%     -    0s

Cutting planes:
  Lazy constraints: 3

Explored 0 nodes (17 simplex iterations) in 0.02 seconds
Thread count was 8 (of 8 available processors)

Solution count 1: 0.195617 

Optimal solution found (tolerance 1.00e-04)
Best objective 1.956165318381e-01, best bound 1.956165318381e-01, gap 0.0000%
Changed value of parameter LazyConstraints to 1
   Prev: 0  Min: 0  Max: 1  Default: 0
Optimize a model with 15 rows, 120 columns and 225 nonzeros
Variable types: 0 continuous, 120 integer (120 binary)
Coefficient statistics:
  Matrix range     [1e+00, 1e+00]
  Objective range  [1e+00, 3e+01]
  Bounds range     [1e+00, 1e+00]
  RHS range        [2e+00, 2e+00]
Presolve removed 0 rows and 15 columns
Presolve time: 0.00s
Presolved: 15 rows, 105 columns, 210 nonzeros
Variable types: 0 continuous, 105 integer (105 binary)

Root relaxation: objective 1.160000e+02, 21 iterations, 0.00 seconds

    Nodes    |    Current Node    |     Objective Bounds      |     Work
 Expl Unexpl |  Obj  Depth IntInf | Incumbent    BestBd   Gap | It/Node Time

*    0     0               0     123.0000000  123.00000  0.00%     -    0s

Cutting planes:
  Lazy constraints: 3

Explored 0 nodes (24 simplex iterations) in 0.02 seconds
Thread count was 8 (of 8 available processors)

Solution count 1: 123 

Optimal solution found (tolerance 1.00e-04)
Best objective 1.230000000000e+02, best bound 1.230000000000e+02, gap 0.0000%

Gurobi 8.1.1 (mac64, Python) logging started Thu Apr 18 17:40:40 2019

Academic license - for non-commercial use only
Changed value of parameter LazyConstraints to 1
   Prev: 0  Min: 0  Max: 1  Default: 0
Optimize a model with 15 rows, 120 columns and 225 nonzeros
Variable types: 0 continuous, 120 integer (120 binary)
Coefficient statistics:
  Matrix range     [1e+00, 1e+00]
  Objective range  [1e+00, 3e+01]
  Bounds range     [1e+00, 1e+00]
  RHS range        [2e+00, 2e+00]
Presolve removed 0 rows and 15 columns
Presolve time: 0.01s
Presolved: 15 rows, 105 columns, 210 nonzeros
Variable types: 0 continuous, 105 integer (105 binary)

Root relaxation: objective 1.170000e+02, 22 iterations, 0.00 seconds

    Nodes    |    Current Node    |     Objective Bounds      |     Work
 Expl Unexpl |  Obj  Depth IntInf | Incumbent    BestBd   Gap | It/Node Time

*    0     0               0     124.0000000  124.00000  0.00%     -    0s

Cutting planes:
  Lazy constraints: 3

Explored 0 nodes (25 simplex iterations) in 0.04 seconds
Thread count was 8 (of 8 available processors)

Solution count 1: 124 

Optimal solution found (tolerance 1.00e-04)
Best objective 1.240000000000e+02, best bound 1.240000000000e+02, gap 0.0000%

Gurobi 8.1.1 (mac64, Python) logging started Thu Apr 18 17:54:23 2019

Academic license - for non-commercial use only
Changed value of parameter LazyConstraints to 1
   Prev: 0  Min: 0  Max: 1  Default: 0
Optimize a model with 15 rows, 120 columns and 225 nonzeros
Variable types: 0 continuous, 120 integer (120 binary)
Coefficient statistics:
  Matrix range     [1e+00, 1e+00]
  Objective range  [1e+00, 3e+01]
  Bounds range     [1e+00, 1e+00]
  RHS range        [2e+00, 2e+00]
Presolve removed 0 rows and 15 columns
Presolve time: 0.00s
Presolved: 15 rows, 105 columns, 210 nonzeros
Variable types: 0 continuous, 105 integer (105 binary)

Root relaxation: objective 1.170000e+02, 22 iterations, 0.00 seconds

    Nodes    |    Current Node    |     Objective Bounds      |     Work
 Expl Unexpl |  Obj  Depth IntInf | Incumbent    BestBd   Gap | It/Node Time

*    0     0               0     124.0000000  124.00000  0.00%     -    0s

Cutting planes:
  Lazy constraints: 3

Explored 0 nodes (25 simplex iterations) in 0.02 seconds
Thread count was 8 (of 8 available processors)

Solution count 1: 124 

Optimal solution found (tolerance 1.00e-04)
Best objective 1.240000000000e+02, best bound 1.240000000000e+02, gap 0.0000%
Changed value of parameter LazyConstraints to 1
   Prev: 0  Min: 0  Max: 1  Default: 0
Optimize a model with 15 rows, 120 columns and 225 nonzeros
Variable types: 0 continuous, 120 integer (120 binary)
Coefficient statistics:
  Matrix range     [1e+00, 1e+00]
  Objective range  [1e+00, 3e+01]
  Bounds range     [1e+00, 1e+00]
  RHS range        [2e+00, 2e+00]
Presolve removed 0 rows and 15 columns
Presolve time: 0.01s
Presolved: 15 rows, 105 columns, 210 nonzeros
Variable types: 0 continuous, 105 integer (105 binary)

Root relaxation: objective 1.170000e+02, 22 iterations, 0.00 seconds

    Nodes    |    Current Node    |     Objective Bounds      |     Work
 Expl Unexpl |  Obj  Depth IntInf | Incumbent    BestBd   Gap | It/Node Time

*    0     0               0     124.0000000  124.00000  0.00%     -    0s

Cutting planes:
  Lazy constraints: 3

Explored 0 nodes (25 simplex iterations) in 0.04 seconds
Thread count was 8 (of 8 available processors)

Solution count 1: 124 

Optimal solution found (tolerance 1.00e-04)
Best objective 1.240000000000e+02, best bound 1.240000000000e+02, gap 0.0000%
Changed value of parameter LazyConstraints to 1
   Prev: 0  Min: 0  Max: 1  Default: 0
Optimize a model with 15 rows, 120 columns and 225 nonzeros
Variable types: 0 continuous, 120 integer (120 binary)
Coefficient statistics:
  Matrix range     [1e+00, 1e+00]
  Objective range  [1e+00, 8e+01]
  Bounds range     [1e+00, 1e+00]
  RHS range        [2e+00, 2e+00]
Presolve removed 0 rows and 15 columns
Presolve time: 0.00s
Presolved: 15 rows, 105 columns, 210 nonzeros
Variable types: 0 continuous, 105 integer (105 binary)

Root relaxation: objective 2.450000e+02, 21 iterations, 0.00 seconds

    Nodes    |    Current Node    |     Objective Bounds      |     Work
 Expl Unexpl |  Obj  Depth IntInf | Incumbent    BestBd   Gap | It/Node Time

     0     0  279.00000    0    8          -  279.00000      -     -    0s
H    0     0                     281.0000000  279.00000  0.71%     -    0s

Cutting planes:
  Gomory: 1
  Lazy constraints: 7

Explored 1 nodes (27 simplex iterations) in 0.03 seconds
Thread count was 8 (of 8 available processors)

Solution count 1: 281 

Optimal solution found (tolerance 1.00e-04)
Best objective 2.810000000000e+02, best bound 2.810000000000e+02, gap 0.0000%
Changed value of parameter LazyConstraints to 1
   Prev: 0  Min: 0  Max: 1  Default: 0
Optimize a model with 10 rows, 55 columns and 100 nonzeros
Variable types: 0 continuous, 55 integer (55 binary)
Coefficient statistics:
  Matrix range     [1e+00, 1e+00]
  Objective range  [1e+00, 8e+01]
  Bounds range     [1e+00, 1e+00]
  RHS range        [2e+00, 2e+00]
Presolve removed 0 rows and 10 columns
Presolve time: 0.00s
Presolved: 10 rows, 45 columns, 90 nonzeros
Variable types: 0 continuous, 45 integer (45 binary)

Root relaxation: objective 2.290000e+02, 18 iterations, 0.00 seconds

    Nodes    |    Current Node    |     Objective Bounds      |     Work
 Expl Unexpl |  Obj  Depth IntInf | Incumbent    BestBd   Gap | It/Node Time

*    0     0               0     229.0000000  229.00000  0.00%     -    0s

Cutting planes:
  Lazy constraints: 2

Explored 0 nodes (18 simplex iterations) in 0.02 seconds
Thread count was 8 (of 8 available processors)

Solution count 1: 229 

Optimal solution found (tolerance 1.00e-04)
Best objective 2.290000000000e+02, best bound 2.290000000000e+02, gap 0.0000%

Gurobi 8.1.1 (mac64, Python) logging started Thu Apr 18 21:32:23 2019

Academic license - for non-commercial use only
Changed value of parameter LazyConstraints to 1
   Prev: 0  Min: 0  Max: 1  Default: 0
Optimize a model with 10 rows, 55 columns and 100 nonzeros
Variable types: 0 continuous, 55 integer (55 binary)
Coefficient statistics:
  Matrix range     [1e+00, 1e+00]
  Objective range  [1e+00, 8e+01]
  Bounds range     [1e+00, 1e+00]
  RHS range        [2e+00, 2e+00]
Presolve removed 0 rows and 10 columns
Presolve time: 0.00s
Presolved: 10 rows, 45 columns, 90 nonzeros
Variable types: 0 continuous, 45 integer (45 binary)

Root relaxation: objective 2.290000e+02, 18 iterations, 0.00 seconds

    Nodes    |    Current Node    |     Objective Bounds      |     Work
 Expl Unexpl |  Obj  Depth IntInf | Incumbent    BestBd   Gap | It/Node Time

*    0     0               0     229.0000000  229.00000  0.00%     -    0s

Cutting planes:
  Lazy constraints: 2

Explored 0 nodes (18 simplex iterations) in 0.02 seconds
Thread count was 8 (of 8 available processors)

Solution count 1: 229 

Optimal solution found (tolerance 1.00e-04)
Best objective 2.290000000000e+02, best bound 2.290000000000e+02, gap 0.0000%

Gurobi 8.1.1 (mac64, Python) logging started Thu Apr 18 23:02:44 2019

Academic license - for non-commercial use only
Changed value of parameter LazyConstraints to 1
   Prev: 0  Min: 0  Max: 1  Default: 0
Optimize a model with 10 rows, 55 columns and 100 nonzeros
Variable types: 0 continuous, 55 integer (55 binary)
Coefficient statistics:
  Matrix range     [1e+00, 1e+00]
  Objective range  [1e+00, 8e+01]
  Bounds range     [1e+00, 1e+00]
  RHS range        [2e+00, 2e+00]
Presolve removed 0 rows and 10 columns
Presolve time: 0.00s
Presolved: 10 rows, 45 columns, 90 nonzeros
Variable types: 0 continuous, 45 integer (45 binary)

Root relaxation: objective 2.290000e+02, 18 iterations, 0.00 seconds

    Nodes    |    Current Node    |     Objective Bounds      |     Work
 Expl Unexpl |  Obj  Depth IntInf | Incumbent    BestBd   Gap | It/Node Time

*    0     0               0     229.0000000  229.00000  0.00%     -    0s

Cutting planes:
  Lazy constraints: 2

Explored 0 nodes (18 simplex iterations) in 0.02 seconds
Thread count was 8 (of 8 available processors)

Solution count 1: 229 

Optimal solution found (tolerance 1.00e-04)
Best objective 2.290000000000e+02, best bound 2.290000000000e+02, gap 0.0000%
Changed value of parameter LazyConstraints to 1
   Prev: 0  Min: 0  Max: 1  Default: 0
Optimize a model with 10 rows, 55 columns and 100 nonzeros
Variable types: 0 continuous, 55 integer (55 binary)
Coefficient statistics:
  Matrix range     [1e+00, 1e+00]
  Objective range  [1e+00, 8e+01]
  Bounds range     [1e+00, 1e+00]
  RHS range        [2e+00, 2e+00]
Presolve removed 0 rows and 10 columns
Presolve time: 0.00s
Presolved: 10 rows, 45 columns, 90 nonzeros
Variable types: 0 continuous, 45 integer (45 binary)

Root relaxation: objective 2.290000e+02, 18 iterations, 0.00 seconds

    Nodes    |    Current Node    |     Objective Bounds      |     Work
 Expl Unexpl |  Obj  Depth IntInf | Incumbent    BestBd   Gap | It/Node Time

*    0     0               0     229.0000000  229.00000  0.00%     -    0s

Cutting planes:
  Lazy constraints: 2

Explored 0 nodes (18 simplex iterations) in 0.02 seconds
Thread count was 8 (of 8 available processors)

Solution count 1: 229 

Optimal solution found (tolerance 1.00e-04)
Best objective 2.290000000000e+02, best bound 2.290000000000e+02, gap 0.0000%
Changed value of parameter LazyConstraints to 1
   Prev: 0  Min: 0  Max: 1  Default: 0
Optimize a model with 10 rows, 55 columns and 100 nonzeros
Variable types: 0 continuous, 55 integer (55 binary)
Coefficient statistics:
  Matrix range     [1e+00, 1e+00]
  Objective range  [1e+00, 8e+01]
  Bounds range     [1e+00, 1e+00]
  RHS range        [2e+00, 2e+00]
Presolve removed 0 rows and 10 columns
Presolve time: 0.00s
Presolved: 10 rows, 45 columns, 90 nonzeros
Variable types: 0 continuous, 45 integer (45 binary)

Root relaxation: objective 2.290000e+02, 18 iterations, 0.00 seconds

    Nodes    |    Current Node    |     Objective Bounds      |     Work
 Expl Unexpl |  Obj  Depth IntInf | Incumbent    BestBd   Gap | It/Node Time

*    0     0               0     229.0000000  229.00000  0.00%     -    0s

Cutting planes:
  Lazy constraints: 2

Explored 0 nodes (18 simplex iterations) in 0.02 seconds
Thread count was 8 (of 8 available processors)

Solution count 1: 229 

Optimal solution found (tolerance 1.00e-04)
Best objective 2.290000000000e+02, best bound 2.290000000000e+02, gap 0.0000%
Changed value of parameter LazyConstraints to 1
   Prev: 0  Min: 0  Max: 1  Default: 0
Optimize a model with 10 rows, 55 columns and 100 nonzeros
Variable types: 0 continuous, 55 integer (55 binary)
Coefficient statistics:
  Matrix range     [1e+00, 1e+00]
  Objective range  [1e+00, 8e+01]
  Bounds range     [1e+00, 1e+00]
  RHS range        [2e+00, 2e+00]
Presolve removed 0 rows and 10 columns
Presolve time: 0.00s
Presolved: 10 rows, 45 columns, 90 nonzeros
Variable types: 0 continuous, 45 integer (45 binary)

Root relaxation: objective 2.290000e+02, 18 iterations, 0.00 seconds

    Nodes    |    Current Node    |     Objective Bounds      |     Work
 Expl Unexpl |  Obj  Depth IntInf | Incumbent    BestBd   Gap | It/Node Time

*    0     0               0     229.0000000  229.00000  0.00%     -    0s

Cutting planes:
  Lazy constraints: 2

Explored 0 nodes (18 simplex iterations) in 0.02 seconds
Thread count was 8 (of 8 available processors)

Solution count 1: 229 

Optimal solution found (tolerance 1.00e-04)
Best objective 2.290000000000e+02, best bound 2.290000000000e+02, gap 0.0000%
Changed value of parameter LazyConstraints to 1
   Prev: 0  Min: 0  Max: 1  Default: 0
Optimize a model with 10 rows, 55 columns and 100 nonzeros
Variable types: 0 continuous, 55 integer (55 binary)
Coefficient statistics:
  Matrix range     [1e+00, 1e+00]
  Objective range  [1e+00, 8e+01]
  Bounds range     [1e+00, 1e+00]
  RHS range        [2e+00, 2e+00]
Presolve removed 0 rows and 10 columns
Presolve time: 0.00s
Presolved: 10 rows, 45 columns, 90 nonzeros
Variable types: 0 continuous, 45 integer (45 binary)

Root relaxation: objective 2.290000e+02, 18 iterations, 0.00 seconds

    Nodes    |    Current Node    |     Objective Bounds      |     Work
 Expl Unexpl |  Obj  Depth IntInf | Incumbent    BestBd   Gap | It/Node Time

*    0     0               0     229.0000000  229.00000  0.00%     -    0s

Cutting planes:
  Lazy constraints: 2

Explored 0 nodes (18 simplex iterations) in 0.02 seconds
Thread count was 8 (of 8 available processors)

Solution count 1: 229 

Optimal solution found (tolerance 1.00e-04)
Best objective 2.290000000000e+02, best bound 2.290000000000e+02, gap 0.0000%
Changed value of parameter LazyConstraints to 1
   Prev: 0  Min: 0  Max: 1  Default: 0
Optimize a model with 10 rows, 55 columns and 100 nonzeros
Variable types: 0 continuous, 55 integer (55 binary)
Coefficient statistics:
  Matrix range     [1e+00, 1e+00]
  Objective range  [1e+00, 8e+01]
  Bounds range     [1e+00, 1e+00]
  RHS range        [2e+00, 2e+00]
Presolve removed 0 rows and 10 columns
Presolve time: 0.00s
Presolved: 10 rows, 45 columns, 90 nonzeros
Variable types: 0 continuous, 45 integer (45 binary)

Root relaxation: objective 2.290000e+02, 18 iterations, 0.00 seconds

    Nodes    |    Current Node    |     Objective Bounds      |     Work
 Expl Unexpl |  Obj  Depth IntInf | Incumbent    BestBd   Gap | It/Node Time

*    0     0               0     229.0000000  229.00000  0.00%     -    0s

Cutting planes:
  Lazy constraints: 2

Explored 0 nodes (18 simplex iterations) in 0.02 seconds
Thread count was 8 (of 8 available processors)

Solution count 1: 229 

Optimal solution found (tolerance 1.00e-04)
Best objective 2.290000000000e+02, best bound 2.290000000000e+02, gap 0.0000%

Gurobi 8.1.1 (mac64, Python) logging started Thu Apr 18 23:36:01 2019

Academic license - for non-commercial use only
Changed value of parameter LazyConstraints to 1
   Prev: 0  Min: 0  Max: 1  Default: 0
Optimize a model with 10 rows, 55 columns and 100 nonzeros
Variable types: 0 continuous, 55 integer (55 binary)
Coefficient statistics:
  Matrix range     [1e+00, 1e+00]
  Objective range  [1e+00, 8e+01]
  Bounds range     [1e+00, 1e+00]
  RHS range        [2e+00, 2e+00]
Presolve removed 0 rows and 10 columns
Presolve time: 0.01s
Presolved: 10 rows, 45 columns, 90 nonzeros
Variable types: 0 continuous, 45 integer (45 binary)

Root relaxation: objective 2.290000e+02, 18 iterations, 0.00 seconds

    Nodes    |    Current Node    |     Objective Bounds      |     Work
 Expl Unexpl |  Obj  Depth IntInf | Incumbent    BestBd   Gap | It/Node Time

*    0     0               0     229.0000000  229.00000  0.00%     -    0s

Cutting planes:
  Lazy constraints: 2

Explored 0 nodes (18 simplex iterations) in 0.04 seconds
Thread count was 8 (of 8 available processors)

Solution count 1: 229 

Optimal solution found (tolerance 1.00e-04)
Best objective 2.290000000000e+02, best bound 2.290000000000e+02, gap 0.0000%

Gurobi 8.1.1 (mac64, Python) logging started Sat Apr 20 21:09:51 2019

Academic license - for non-commercial use only
Changed value of parameter LazyConstraints to 1
   Prev: 0  Min: 0  Max: 1  Default: 0
Optimize a model with 10 rows, 55 columns and 100 nonzeros
Variable types: 0 continuous, 55 integer (55 binary)
Coefficient statistics:
  Matrix range     [1e+00, 1e+00]
  Objective range  [1e+00, 8e+01]
  Bounds range     [1e+00, 1e+00]
  RHS range        [2e+00, 2e+00]
Presolve removed 0 rows and 10 columns
Presolve time: 0.02s
Presolved: 10 rows, 45 columns, 90 nonzeros
Variable types: 0 continuous, 45 integer (45 binary)

Root relaxation: objective 2.290000e+02, 18 iterations, 0.01 seconds

    Nodes    |    Current Node    |     Objective Bounds      |     Work
 Expl Unexpl |  Obj  Depth IntInf | Incumbent    BestBd   Gap | It/Node Time

*    0     0               0     229.0000000  229.00000  0.00%     -    0s

Cutting planes:
  Lazy constraints: 2

Explored 0 nodes (18 simplex iterations) in 0.08 seconds
Thread count was 8 (of 8 available processors)

Solution count 1: 229 

Optimal solution found (tolerance 1.00e-04)
Best objective 2.290000000000e+02, best bound 2.290000000000e+02, gap 0.0000%
Changed value of parameter LazyConstraints to 1
   Prev: 0  Min: 0  Max: 1  Default: 0
Optimize a model with 10 rows, 55 columns and 100 nonzeros
Variable types: 0 continuous, 55 integer (55 binary)
Coefficient statistics:
  Matrix range     [1e+00, 1e+00]
  Objective range  [1e+00, 8e+01]
  Bounds range     [1e+00, 1e+00]
  RHS range        [2e+00, 2e+00]
Presolve removed 0 rows and 10 columns
Presolve time: 0.00s
Presolved: 10 rows, 45 columns, 90 nonzeros
Variable types: 0 continuous, 45 integer (45 binary)

Root relaxation: objective 2.290000e+02, 18 iterations, 0.00 seconds

    Nodes    |    Current Node    |     Objective Bounds      |     Work
 Expl Unexpl |  Obj  Depth IntInf | Incumbent    BestBd   Gap | It/Node Time

*    0     0               0     229.0000000  229.00000  0.00%     -    0s

Cutting planes:
  Lazy constraints: 2

Explored 0 nodes (18 simplex iterations) in 0.02 seconds
Thread count was 8 (of 8 available processors)

Solution count 1: 229 

Optimal solution found (tolerance 1.00e-04)
Best objective 2.290000000000e+02, best bound 2.290000000000e+02, gap 0.0000%
